language ESSENCE' 1.0

letting jobs = 102
letting horizon = 814
letting resourcesRenew = 2
letting resourcesNonrenew = 2
letting resourceLimits = [27, 26, 447, 474]
letting successors = [[2, 3, 4, 6, 7, 8, 9, 10, 13, 14, 15, 16, 18, 21, 23, 25, 27, 29, 31], [33, 26, 12, 11, 5], [59, 51, 48, 47, 41, 38, 37, 30, 24, 20, 17], [47, 43, 41, 39, 35, 34, 30, 19, 11], [59, 55, 54, 51, 48, 47, 46, 43, 38, 37, 35, 34, 30], [59, 55, 53, 51, 50, 47, 42, 40, 35, 34, 22], [65, 55, 50, 48, 46, 40, 35, 34, 32, 30], [43, 41, 34, 28, 11], [59, 46, 43, 40, 38, 30, 19], [54, 47, 46, 43, 40, 38, 34, 20], [63, 59, 57, 55, 53, 50, 48, 46, 44, 42, 38], [54, 43, 42, 37, 20], [65, 55, 53, 45, 42, 40, 37, 35], [82, 67, 65, 62, 59, 54, 53, 47, 46, 43, 42, 40], [65, 63, 59, 57, 55, 53, 52, 46, 45, 36], [65, 62, 57, 55, 53, 49, 45, 43, 40], [62, 56, 55, 50, 49, 45, 44, 33], [65, 55, 54, 46, 45, 36, 35], [63, 62, 55, 53, 50, 49, 45, 44, 42], [101, 71, 65, 63, 62, 57, 56, 53, 49, 45, 44], [101, 82, 79, 71, 65, 63, 53, 50, 49, 44, 39], [101, 65, 62, 58, 57, 52, 49, 45, 43, 41], [71, 63, 62, 55, 53, 52, 50, 49, 46, 45], [75, 71, 62, 55, 53, 52, 46, 35], [97, 82, 81, 67, 62, 60, 58, 50, 44, 43, 42], [101, 67, 65, 62, 58, 55, 54, 45, 44, 42], [101, 63, 62, 53, 49, 45, 42], [71, 58, 57, 54, 49, 46, 45, 44], [101, 75, 65, 63, 58, 54, 49, 42], [101, 97, 82, 81, 75, 67, 64, 63, 62, 60, 53, 42], [101, 71, 63, 58, 56, 52, 49, 45], [80, 79, 69, 62, 60, 59, 53, 52, 51, 45], [101, 97, 75, 71, 70, 66, 63, 60, 57, 54, 53, 52], [101, 95, 80, 79, 71, 63, 60, 52, 45], [101, 100, 97, 96, 70, 69, 66, 63, 61, 58, 57, 49], [100, 96, 82, 75, 74, 71, 70, 66, 62, 61, 56, 49], [101, 98, 97, 82, 81, 66, 56, 44], [100, 82, 73, 71, 70, 69, 65, 64, 62, 61, 49], [98, 97, 81, 80, 75, 70, 69, 66, 64, 60, 59, 52], [101, 97, 58, 56, 44], [100, 97, 93, 81, 80, 78, 74, 73, 70, 68, 64, 63, 61, 56], [98, 96, 71, 70, 66, 56, 52], [100, 93, 74, 71, 70, 68, 64, 63, 61, 56], [99, 96, 95, 91, 80, 75, 73, 70, 69, 52], [98, 97, 93, 92, 91, 82, 81, 75, 74, 72, 70, 68, 66, 64], [101, 97, 93, 81, 80, 79, 78, 77, 74, 68, 64, 61], [101, 98, 96, 91, 80, 52], [100, 96, 95, 79, 68, 67, 61, 60], [98, 94, 81, 80, 78, 68, 67, 60], [99, 90, 73, 54], [101, 100, 98, 95, 94, 93, 85, 77, 74, 61], [100, 94, 93, 78, 77, 76, 74, 68, 61], [96, 90, 88, 73, 68, 58], [95, 92, 91, 87, 85, 78, 72, 69, 64], [98, 94, 93, 92, 90, 88, 87, 86, 85, 78, 77, 76, 72], [99, 95, 88, 87, 85, 79, 77, 76, 69], [93, 90, 88, 85, 82, 79, 77, 72], [98, 95, 92, 91, 89, 86, 85, 77, 76], [95, 90, 89, 88, 86, 76, 73], [99, 93, 91, 90, 88, 87, 86, 84, 83], [92, 90, 88, 87, 86, 84, 72], [92, 90, 88, 87, 85, 84, 76], [98, 91, 89, 88, 87, 85, 83], [96, 94, 88, 86, 76], [97, 95, 86, 85, 80], [99, 88, 86, 73], [90, 85, 77, 76], [86, 85, 84, 83], [89, 86, 84], [87, 86, 85], [86, 77], [89, 83], [87, 85], [90, 84], [87, 83], [83], [84], [84], [91], [83], [89], [87], [102], [102], [102], [102], [102], [102], [102], [102], [102], [102], [102], [102], [102], [102], [102], [102], [102], [102], [102], []]
letting durations = [[0], [2, 2, 8], [1, 7, 8], [2, 3, 10], [2, 2, 4], [2, 3, 6], [1, 4, 9], [4, 7, 9], [5, 7, 9], [1, 3, 10], [4, 8, 9], [3, 6, 8], [1, 2, 3], [2, 8, 9], [1, 2, 9], [1, 5, 6], [2, 3, 3], [3, 4, 4], [4, 5, 10], [2, 5, 6], [3, 4, 7], [4, 8, 10], [3, 9, 10], [1, 5, 6], [3, 9, 10], [7, 9, 10], [4, 8, 10], [4, 9, 10], [1, 3, 7], [1, 5, 10], [2, 5, 10], [5, 7, 8], [2, 4, 9], [2, 4, 7], [3, 10, 10], [2, 9, 9], [5, 7, 8], [7, 8, 10], [2, 2, 10], [2, 3, 5], [4, 5, 6], [1, 8, 10], [6, 6, 7], [1, 6, 7], [4, 4, 6], [2, 7, 10], [2, 3, 9], [2, 3, 6], [1, 3, 8], [2, 4, 7], [4, 7, 10], [3, 5, 7], [6, 6, 10], [2, 4, 9], [5, 8, 9], [4, 4, 10], [9, 9, 10], [6, 9, 10], [3, 7, 10], [1, 8, 9], [2, 8, 9], [2, 2, 9], [1, 7, 10], [5, 6, 9], [1, 5, 5], [1, 1, 2], [1, 2, 6], [3, 3, 4], [2, 4, 6], [3, 4, 9], [1, 2, 3], [3, 6, 9], [5, 8, 10], [3, 5, 7], [4, 6, 8], [1, 8, 10], [2, 3, 10], [2, 6, 8], [3, 4, 10], [1, 6, 8], [3, 5, 7], [3, 6, 9], [3, 8, 10], [1, 2, 5], [6, 10, 10], [2, 4, 9], [1, 3, 10], [3, 3, 9], [2, 7, 10], [6, 8, 9], [1, 7, 9], [4, 5, 8], [1, 3, 10], [1, 5, 6], [6, 7, 8], [2, 3, 10], [2, 5, 6], [6, 7, 7], [4, 4, 7], [1, 5, 9], [1, 8, 8], [0]]
letting resourceUsage = [[[0, 0, 0, 0]], [[3, 0, 4, 5], [0, 3, 4, 4], [3, 0, 4, 3]], [[0, 4, 6, 10], [1, 0, 5, 7], [0, 1, 5, 2]], [[0, 4, 9, 7], [2, 0, 8, 7], [2, 0, 8, 5]], [[0, 5, 5, 4], [3, 0, 4, 2], [0, 4, 3, 1]], [[0, 4, 2, 8], [0, 3, 2, 5], [4, 0, 2, 5]], [[0, 3, 2, 1], [1, 0, 1, 2], [1, 0, 1, 1]], [[0, 2, 6, 6], [0, 2, 6, 5], [2, 0, 6, 6]], [[5, 0, 9, 7], [0, 3, 7, 5], [2, 0, 6, 5]], [[0, 5, 7, 9], [2, 0, 7, 7], [0, 3, 5, 7]], [[4, 0, 7, 8], [2, 0, 5, 6], [1, 0, 4, 3]], [[4, 0, 1, 6], [0, 2, 1, 6], [0, 2, 1, 2]], [[1, 0, 8, 9], [1, 0, 7, 9], [1, 0, 6, 9]], [[3, 0, 1, 6], [3, 0, 1, 4], [2, 0, 1, 3]], [[0, 4, 5, 6], [0, 4, 4, 5], [0, 4, 2, 4]], [[4, 0, 6, 6], [0, 3, 5, 5], [1, 0, 5, 2]], [[0, 3, 6, 8], [1, 0, 5, 8], [0, 3, 5, 7]], [[0, 4, 6, 9], [0, 4, 3, 5], [1, 0, 1, 2]], [[0, 3, 5, 9], [0, 3, 3, 7], [2, 0, 3, 6]], [[5, 0, 2, 7], [0, 3, 1, 6], [0, 2, 1, 5]], [[3, 0, 8, 9], [3, 0, 7, 8], [0, 3, 6, 5]], [[5, 0, 10, 8], [4, 0, 8, 7], [2, 0, 8, 7]], [[2, 0, 6, 6], [2, 0, 3, 4], [0, 2, 1, 4]], [[3, 0, 5, 8], [3, 0, 5, 6], [2, 0, 4, 6]], [[4, 0, 8, 10], [2, 0, 7, 7], [1, 0, 6, 7]], [[0, 2, 4, 3], [3, 0, 4, 2], [0, 1, 4, 2]], [[0, 4, 7, 2], [4, 0, 6, 2], [0, 2, 5, 2]], [[0, 4, 7, 7], [2, 0, 6, 7], [2, 0, 4, 5]], [[4, 0, 4, 9], [3, 0, 3, 9], [2, 0, 3, 8]], [[4, 0, 5, 9], [0, 2, 2, 7], [4, 0, 2, 5]], [[3, 0, 9, 5], [2, 0, 6, 5], [2, 0, 3, 5]], [[2, 0, 9, 7], [2, 0, 8, 5], [2, 0, 8, 4]], [[3, 0, 7, 9], [0, 2, 6, 9], [0, 2, 6, 8]], [[0, 5, 6, 5], [5, 0, 6, 5], [5, 0, 6, 3]], [[4, 0, 4, 6], [3, 0, 4, 5], [0, 4, 4, 4]], [[0, 5, 6, 9], [3, 0, 5, 7], [0, 5, 4, 5]], [[1, 0, 7, 5], [1, 0, 6, 3], [0, 3, 5, 2]], [[4, 0, 10, 4], [0, 5, 7, 4], [0, 5, 3, 4]], [[1, 0, 5, 3], [0, 2, 5, 3], [0, 1, 5, 3]], [[0, 4, 2, 5], [0, 2, 1, 4], [3, 0, 1, 3]], [[1, 0, 7, 3], [1, 0, 6, 2], [1, 0, 3, 2]], [[2, 0, 7, 6], [1, 0, 6, 4], [0, 1, 6, 4]], [[4, 0, 4, 7], [0, 1, 3, 5], [4, 0, 2, 5]], [[0, 1, 8, 10], [4, 0, 5, 6], [0, 1, 1, 5]], [[0, 4, 5, 8], [2, 0, 3, 6], [2, 0, 3, 5]], [[0, 4, 3, 9], [0, 2, 2, 9], [1, 0, 1, 8]], [[1, 0, 4, 3], [1, 0, 3, 2], [0, 2, 2, 2]], [[5, 0, 2, 4], [4, 0, 1, 2], [0, 3, 1, 2]], [[0, 4, 7, 6], [1, 0, 5, 5], [1, 0, 4, 2]], [[0, 3, 2, 6], [2, 0, 1, 3], [0, 1, 1, 1]], [[0, 3, 3, 6], [3, 0, 2, 4], [1, 0, 2, 4]], [[3, 0, 7, 4], [0, 2, 6, 4], [3, 0, 5, 2]], [[0, 2, 5, 1], [0, 1, 4, 2], [0, 1, 4, 1]], [[2, 0, 8, 6], [0, 3, 6, 6], [1, 0, 3, 6]], [[0, 3, 6, 9], [0, 2, 4, 7], [3, 0, 4, 7]], [[5, 0, 10, 5], [0, 4, 5, 4], [0, 4, 3, 4]], [[4, 0, 8, 8], [0, 4, 8, 7], [0, 4, 8, 4]], [[0, 4, 9, 8], [2, 0, 4, 7], [2, 0, 4, 3]], [[0, 5, 10, 9], [0, 3, 8, 8], [2, 0, 8, 8]], [[0, 5, 7, 9], [0, 5, 5, 5], [2, 0, 3, 4]], [[2, 0, 3, 5], [1, 0, 3, 4], [1, 0, 3, 3]], [[0, 3, 7, 8], [1, 0, 7, 6], [1, 0, 6, 2]], [[3, 0, 7, 3], [3, 0, 4, 2], [0, 2, 4, 1]], [[2, 0, 4, 4], [0, 3, 3, 3], [1, 0, 3, 3]], [[3, 0, 4, 7], [0, 3, 4, 7], [1, 0, 2, 5]], [[4, 0, 7, 3], [0, 1, 6, 3], [0, 1, 2, 3]], [[4, 0, 5, 4], [0, 1, 2, 3], [1, 0, 1, 1]], [[3, 0, 6, 5], [0, 3, 6, 4], [0, 2, 6, 3]], [[0, 5, 5, 10], [1, 0, 3, 8], [1, 0, 2, 5]], [[0, 2, 9, 9], [0, 1, 6, 9], [1, 0, 3, 9]], [[0, 4, 8, 3], [0, 4, 8, 2], [0, 4, 7, 1]], [[3, 0, 6, 4], [0, 1, 5, 2], [0, 1, 4, 2]], [[0, 3, 8, 6], [3, 0, 8, 5], [0, 2, 8, 5]], [[0, 3, 4, 7], [1, 0, 3, 4], [1, 0, 1, 3]], [[4, 0, 6, 10], [4, 0, 3, 10], [0, 2, 2, 10]], [[4, 0, 8, 9], [0, 4, 8, 5], [0, 4, 8, 3]], [[0, 2, 5, 9], [3, 0, 3, 8], [0, 1, 3, 8]], [[4, 0, 6, 4], [0, 1, 4, 3], [0, 1, 3, 3]], [[4, 0, 1, 7], [0, 2, 1, 5], [2, 0, 1, 3]], [[0, 5, 8, 10], [2, 0, 4, 7], [2, 0, 4, 5]], [[3, 0, 10, 6], [3, 0, 7, 4], [0, 2, 7, 4]], [[5, 0, 6, 10], [4, 0, 3, 8], [2, 0, 1, 6]], [[4, 0, 4, 8], [0, 2, 2, 7], [1, 0, 2, 5]], [[2, 0, 9, 2], [2, 0, 7, 1], [1, 0, 7, 1]], [[4, 0, 3, 4], [3, 0, 3, 3], [0, 2, 3, 3]], [[0, 4, 9, 9], [3, 0, 9, 8], [0, 3, 8, 8]], [[0, 5, 7, 6], [0, 4, 6, 5], [0, 2, 5, 5]], [[0, 2, 7, 8], [2, 0, 5, 6], [0, 1, 5, 5]], [[0, 2, 5, 5], [3, 0, 4, 5], [0, 2, 3, 4]], [[0, 3, 7, 3], [2, 0, 6, 3], [0, 2, 5, 2]], [[4, 0, 7, 9], [0, 2, 7, 8], [0, 1, 7, 8]], [[0, 3, 9, 5], [3, 0, 8, 2], [1, 0, 7, 2]], [[0, 3, 7, 5], [3, 0, 6, 2], [3, 0, 6, 1]], [[0, 5, 4, 4], [0, 5, 3, 4], [2, 0, 3, 4]], [[0, 2, 10, 5], [4, 0, 9, 4], [3, 0, 8, 4]], [[4, 0, 7, 9], [3, 0, 5, 8], [3, 0, 3, 7]], [[0, 3, 4, 4], [1, 0, 2, 4], [0, 2, 1, 4]], [[0, 3, 3, 3], [2, 0, 2, 2], [0, 2, 1, 2]], [[4, 0, 8, 6], [0, 3, 5, 3], [0, 3, 4, 3]], [[0, 4, 6, 9], [0, 4, 4, 7], [1, 0, 3, 7]], [[0, 5, 8, 5], [0, 3, 8, 4], [5, 0, 8, 4]], [[0, 0, 0, 0]]]
